2025-02-23 18:06:52,230 - INFO - Set parameter WLSAccessID
2025-02-23 18:06:52,230 - INFO - Set parameter WLSSecret
2025-02-23 18:06:52,231 - INFO - Set parameter LicenseID to value 2626770
2025-02-23 18:06:52,240 - INFO - Academic license 2626770 - for non-commercial use only - registered to fa___@uw.edu
2025-02-23 18:06:52,241 - INFO - Initialization complete
2025-02-23 18:07:00,891 - INFO - Variables created successfully
2025-02-23 18:08:40,021 - INFO - Constraints added successfully
2025-02-23 18:08:40,253 - INFO - Objective function set successfully
2025-02-23 18:08:40,817 - INFO - Set parameter MIPGap to value 0.1
2025-02-23 18:08:40,818 - INFO - Set parameter TimeLimit to value 3600
2025-02-23 18:08:40,818 - INFO - Set parameter MIPFocus to value 1
2025-02-23 18:08:40,818 - INFO - Starting optimization - accepting solutions within 10% of optimal
2025-02-23 18:08:40,818 - INFO - Maximum possible satisfied requests: 9600
2025-02-23 18:08:42,451 - INFO - Gurobi Optimizer version 12.0.1 build v12.0.1rc0 (win64 - Windows 11.0 (26100.2))
2025-02-23 18:08:42,451 - INFO - 
2025-02-23 18:08:42,452 - INFO - CPU model: AMD Ryzen 7 2700X Eight-Core Processor, instruction set [SSE2|AVX|AVX2]
2025-02-23 18:08:42,452 - INFO - Thread count: 8 physical cores, 16 logical processors, using up to 16 threads
2025-02-23 18:08:42,452 - INFO - 
2025-02-23 18:08:42,453 - INFO - Non-default parameters:
2025-02-23 18:08:42,453 - INFO - TimeLimit  3600
2025-02-23 18:08:42,453 - INFO - MIPGap  0.1
2025-02-23 18:08:42,453 - INFO - MIPFocus  1
2025-02-23 18:08:42,453 - INFO - 
2025-02-23 18:08:42,454 - INFO - Academic license 2626770 - for non-commercial use only - registered to fa___@uw.edu
2025-02-23 18:08:42,456 - INFO - Optimize a model with 6490921 rows, 2428104 columns and 17788464 nonzeros
2025-02-23 18:08:42,656 - INFO - Model fingerprint: 0xf7328e4f
2025-02-23 18:08:42,659 - INFO - Variable types: 0 continuous, 2428104 integer (2428104 binary)
2025-02-23 18:08:42,684 - INFO - Coefficient statistics:
2025-02-23 18:08:42,684 - INFO -   Matrix range     [1e+00, 1e+00]
2025-02-23 18:08:42,684 - INFO -   Objective range  [1e+00, 1e+00]
2025-02-23 18:08:42,684 - INFO -   Bounds range     [1e+00, 1e+00]
2025-02-23 18:08:42,685 - INFO -   RHS range        [1e+00, 4e+01]
2025-02-23 18:08:49,981 - INFO - Presolve removed 877 rows and 32 columns (presolve time = 5s)...
2025-02-23 18:08:54,654 - INFO - Presolve removed 879 rows and 34 columns (presolve time = 10s)...
2025-02-23 18:08:59,648 - INFO - Presolve removed 879 rows and 34 columns (presolve time = 15s)...
2025-02-23 18:09:04,648 - INFO - Presolve removed 879 rows and 34 columns (presolve time = 20s)...
2025-02-23 18:09:09,652 - INFO - Presolve removed 879 rows and 34 columns (presolve time = 25s)...
2025-02-23 18:09:14,648 - INFO - Presolve removed 879 rows and 34 columns (presolve time = 30s)...
2025-02-23 18:09:19,653 - INFO - Presolve removed 879 rows and 34 columns (presolve time = 35s)...
2025-02-23 18:09:24,652 - INFO - Presolve removed 879 rows and 34 columns (presolve time = 40s)...
2025-02-23 18:09:29,653 - INFO - Presolve removed 879 rows and 34 columns (presolve time = 45s)...
2025-02-23 18:09:34,651 - INFO - Presolve removed 879 rows and 34 columns (presolve time = 50s)...
2025-02-23 18:09:39,663 - INFO - Presolve removed 879 rows and 34 columns (presolve time = 55s)...
2025-02-23 18:09:44,704 - INFO - Presolve removed 879 rows and 34 columns (presolve time = 60s)...
2025-02-23 18:09:49,704 - INFO - Presolve removed 879 rows and 34 columns (presolve time = 65s)...
2025-02-23 18:09:54,673 - INFO - Presolve removed 879 rows and 34 columns (presolve time = 70s)...
2025-02-23 18:09:59,691 - INFO - Presolve removed 879 rows and 34 columns (presolve time = 75s)...
2025-02-23 18:10:04,664 - INFO - Presolve removed 879 rows and 34 columns (presolve time = 80s)...
2025-02-23 18:10:09,707 - INFO - Presolve removed 879 rows and 34 columns (presolve time = 85s)...
2025-02-23 18:10:14,669 - INFO - Presolve removed 879 rows and 34 columns (presolve time = 90s)...
2025-02-23 18:10:19,702 - INFO - Presolve removed 879 rows and 34 columns (presolve time = 95s)...
2025-02-23 18:10:24,693 - INFO - Presolve removed 879 rows and 34 columns (presolve time = 100s)...
2025-02-23 18:10:29,686 - INFO - Presolve removed 879 rows and 34 columns (presolve time = 105s)...
2025-02-23 18:10:34,674 - INFO - Presolve removed 879 rows and 34 columns (presolve time = 110s)...
2025-02-23 18:10:39,672 - INFO - Presolve removed 879 rows and 34 columns (presolve time = 115s)...
2025-02-23 18:10:44,684 - INFO - Presolve removed 879 rows and 34 columns (presolve time = 120s)...
2025-02-23 18:10:49,664 - INFO - Presolve removed 879 rows and 34 columns (presolve time = 125s)...
2025-02-23 18:10:54,676 - INFO - Presolve removed 879 rows and 34 columns (presolve time = 130s)...
2025-02-23 18:10:59,688 - INFO - Presolve removed 879 rows and 34 columns (presolve time = 135s)...
2025-02-23 18:11:04,648 - INFO - Presolve removed 879 rows and 34 columns (presolve time = 140s)...
2025-02-23 18:11:09,679 - INFO - Presolve removed 879 rows and 34 columns (presolve time = 145s)...
2025-02-23 18:11:14,687 - INFO - Presolve removed 879 rows and 34 columns (presolve time = 150s)...
2025-02-23 18:11:19,663 - INFO - Presolve removed 879 rows and 34 columns (presolve time = 155s)...
2025-02-23 18:11:24,689 - INFO - Presolve removed 879 rows and 34 columns (presolve time = 160s)...
2025-02-23 18:11:29,712 - INFO - Presolve removed 879 rows and 34 columns (presolve time = 165s)...
2025-02-23 18:11:34,694 - INFO - Presolve removed 879 rows and 34 columns (presolve time = 170s)...
2025-02-23 18:11:39,696 - INFO - Presolve removed 879 rows and 34 columns (presolve time = 175s)...
2025-02-23 18:11:44,687 - INFO - Presolve removed 879 rows and 34 columns (presolve time = 180s)...
2025-02-23 18:11:49,653 - INFO - Presolve removed 879 rows and 34 columns (presolve time = 185s)...
2025-02-23 18:11:54,703 - INFO - Presolve removed 879 rows and 34 columns (presolve time = 190s)...
2025-02-23 18:11:59,663 - INFO - Presolve removed 879 rows and 34 columns (presolve time = 195s)...
2025-02-23 18:12:04,648 - INFO - Presolve removed 879 rows and 34 columns (presolve time = 200s)...
2025-02-23 18:12:09,700 - INFO - Presolve removed 879 rows and 34 columns (presolve time = 205s)...
2025-02-23 18:12:14,648 - INFO - Presolve removed 879 rows and 34 columns (presolve time = 210s)...
2025-02-23 18:12:19,687 - INFO - Presolve removed 879 rows and 34 columns (presolve time = 215s)...
2025-02-23 18:12:24,680 - INFO - Presolve removed 879 rows and 34 columns (presolve time = 220s)...
2025-02-23 18:12:29,686 - INFO - Presolve removed 879 rows and 34 columns (presolve time = 225s)...
2025-02-23 18:12:34,648 - INFO - Presolve removed 879 rows and 34 columns (presolve time = 230s)...
2025-02-23 18:12:39,665 - INFO - Presolve removed 879 rows and 34 columns (presolve time = 235s)...
2025-02-23 18:12:44,684 - INFO - Presolve removed 879 rows and 34 columns (presolve time = 240s)...
2025-02-23 18:12:49,686 - INFO - Presolve removed 879 rows and 34 columns (presolve time = 245s)...
2025-02-23 18:12:54,660 - INFO - Presolve removed 879 rows and 34 columns (presolve time = 250s)...
2025-02-23 18:12:59,665 - INFO - Presolve removed 879 rows and 34 columns (presolve time = 255s)...
2025-02-23 18:13:04,692 - INFO - Presolve removed 879 rows and 34 columns (presolve time = 260s)...
2025-02-23 18:13:09,649 - INFO - Presolve removed 879 rows and 34 columns (presolve time = 265s)...
2025-02-23 18:13:14,660 - INFO - Presolve removed 879 rows and 34 columns (presolve time = 270s)...
2025-02-23 18:13:19,667 - INFO - Presolve removed 879 rows and 34 columns (presolve time = 275s)...
2025-02-23 18:13:24,673 - INFO - Presolve removed 879 rows and 34 columns (presolve time = 280s)...
2025-02-23 18:13:29,654 - INFO - Presolve removed 879 rows and 34 columns (presolve time = 285s)...
2025-02-23 18:13:34,706 - INFO - Presolve removed 879 rows and 34 columns (presolve time = 290s)...
2025-02-23 18:13:39,651 - INFO - Presolve removed 879 rows and 34 columns (presolve time = 295s)...
2025-02-23 18:13:44,650 - INFO - Presolve removed 879 rows and 34 columns (presolve time = 300s)...
2025-02-23 18:13:49,700 - INFO - Presolve removed 879 rows and 34 columns (presolve time = 305s)...
2025-02-23 18:13:54,662 - INFO - Presolve removed 879 rows and 34 columns (presolve time = 310s)...
2025-02-23 18:13:59,665 - INFO - Presolve removed 879 rows and 34 columns (presolve time = 315s)...
2025-02-23 18:14:04,651 - INFO - Presolve removed 879 rows and 62 columns (presolve time = 320s)...
2025-02-23 18:14:09,656 - INFO - Presolve removed 879 rows and 62 columns (presolve time = 325s)...
2025-02-23 18:14:14,648 - INFO - Presolve removed 879 rows and 62 columns (presolve time = 330s)...
2025-02-23 18:14:19,705 - INFO - Presolve removed 879 rows and 62 columns (presolve time = 335s)...
2025-02-23 18:14:24,718 - INFO - Presolve removed 879 rows and 62 columns (presolve time = 340s)...
2025-02-23 18:14:47,397 - INFO - Presolve removed 879 rows and 62 columns (presolve time = 363s)...
2025-02-23 18:14:54,860 - INFO - Presolve removed 879 rows and 62 columns (presolve time = 370s)...
2025-02-23 18:14:57,853 - INFO - Presolve removed 879 rows and 62 columns
2025-02-23 18:14:57,853 - INFO - Presolve time: 373.20s
2025-02-23 18:14:58,096 - INFO - Presolved: 6490042 rows, 2428042 columns, 17788200 nonzeros
2025-02-23 18:15:02,331 - INFO - Variable types: 0 continuous, 2428042 integer (2428042 binary)
2025-02-23 18:15:23,711 - INFO - 
2025-02-23 18:15:23,711 - INFO - Deterministic concurrent LP optimizer: primal simplex, dual simplex, and barrier
2025-02-23 18:15:23,711 - INFO - Showing barrier log only...
2025-02-23 18:15:23,711 - INFO - 
2025-02-23 18:15:51,779 - INFO - Root barrier log...
2025-02-23 18:15:51,783 - INFO - 
2025-02-23 18:15:51,794 - INFO - Ordering time: 0.00s
2025-02-23 18:15:51,797 - INFO - 
2025-02-23 18:15:51,797 - INFO - Barrier statistics:
2025-02-23 18:15:51,798 - INFO -  AA' NZ     : 1.111e+04
2025-02-23 18:15:51,798 - INFO -  Factor NZ  : 3.810e+04 (roughly 1 MB of memory)
2025-02-23 18:15:51,798 - INFO -  Factor Ops : 1.189e+06 (less than 1 second per iteration)
2025-02-23 18:15:51,798 - INFO -  Threads    : 1
2025-02-23 18:15:51,825 - INFO - 
2025-02-23 18:15:51,826 - INFO -                   Objective                Residual
2025-02-23 18:15:51,826 - INFO - Iter       Primal          Dual         Primal    Dual     Compl     Time
2025-02-23 18:15:51,828 - INFO -    0   9.60000000e+03  9.60240471e+03  9.33e+00 0.00e+00  1.20e-01   429s
2025-02-23 18:15:51,829 - INFO -    1   9.60000000e+03  9.62560794e+03  1.10e+00 9.71e-17  2.00e-02   429s
2025-02-23 18:15:51,831 - INFO -    2   9.60000000e+03  9.60783088e+03  1.91e-01 2.22e-16  3.88e-03   429s
2025-02-23 18:15:51,834 - INFO -    3   9.60000000e+03  9.60126186e+03  3.77e-03 9.71e-17  4.58e-04   429s
2025-02-23 18:15:51,835 - INFO -    4   9.60000000e+03  9.60000250e+03  4.00e-14 3.25e-17  8.87e-07   429s
2025-02-23 18:15:51,838 - INFO -    5   9.60000000e+03  9.60000000e+03  2.60e-14 2.99e-19  8.87e-10   429s
2025-02-23 18:15:51,839 - INFO -    6   9.60000000e+03  9.60000000e+03  2.44e-14 1.10e-22  8.87e-13   429s
2025-02-23 18:15:51,841 - INFO -    7   9.60000000e+03  9.60000000e+03  3.11e-15 1.96e-25  8.87e-16   429s
2025-02-23 18:15:51,843 - INFO - 
2025-02-23 18:15:51,843 - INFO - Barrier solved model in 7 iterations and 429.39 seconds (191.10 work units)
2025-02-23 18:15:51,843 - INFO - Optimal objective 9.60000000e+03
2025-02-23 18:15:51,843 - INFO - 
2025-02-23 18:15:51,846 - INFO - 
2025-02-23 18:15:51,846 - INFO - Root crossover log...
2025-02-23 18:15:51,848 - INFO - 
2025-02-23 18:15:51,850 - INFO -        0 DPushes remaining with DInf 0.0000000e+00               429s
2025-02-23 18:15:51,850 - INFO - 
2025-02-23 18:15:51,851 - INFO -      235 PPushes remaining with PInf 0.0000000e+00               429s
2025-02-23 18:15:51,853 - INFO -        0 PPushes remaining with PInf 0.0000000e+00               429s
2025-02-23 18:15:51,853 - INFO - 
2025-02-23 18:15:51,853 - INFO -   Push phase complete: Pinf 0.0000000e+00, Dinf 0.0000000e+00    429s
2025-02-23 18:15:51,853 - INFO - 
2025-02-23 18:15:51,854 - INFO - 
2025-02-23 18:15:51,856 - INFO - Root simplex log...
2025-02-23 18:15:51,856 - INFO - 
2025-02-23 18:15:51,856 - INFO - Iteration    Objective       Primal Inf.    Dual Inf.      Time
2025-02-23 18:15:51,856 - INFO -      238    9.6000000e+03   0.000000e+00   0.000000e+00    429s
2025-02-23 18:15:51,859 - INFO -      238    9.6000000e+03   0.000000e+00   0.000000e+00    429s
2025-02-23 18:15:52,418 - INFO - 
2025-02-23 18:15:52,418 - INFO - Use crossover to convert LP symmetric solution to basic solution...
2025-02-23 18:15:56,055 - INFO - Warning: Possible non-determinism after error
2025-02-23 18:15:56,055 - INFO - 
2025-02-23 18:15:56,667 - INFO - 
2025-02-23 18:15:56,667 - INFO - Explored 0 nodes (0 simplex iterations) in 434.21 seconds (191.29 work units)
2025-02-23 18:15:56,667 - INFO - Thread count was 1 (of 16 available processors)
2025-02-23 18:15:56,667 - INFO - 
2025-02-23 18:15:56,667 - INFO - Solution count 0
2025-02-23 18:15:56,667 - INFO - 
2025-02-23 18:15:56,668 - INFO - Solve interrupted (error code 10001)
2025-02-23 18:15:56,668 - INFO - Best objective -, best bound -, gap -
2025-02-23 18:15:56,759 - ERROR - Gurobi error: Out of memory
2025-02-23 18:15:56,761 - ERROR - Error running optimization: Out of memory
2025-02-23 18:15:56,972 - INFO - Warning: environment still referenced so free is deferred (Continue to use WLS)
